C
    1.0
       2.44618916393 0.00000000000   0.00000000000           
      -1.22309458197 2.11846195843   0.00000000000
       0.00000000000   0.00000000000 6.65422904762 
  4
Direct
        0.00000000 0.00000000 0.25000000
        0.00000000 0.00000000 0.75000000
        0.33333333 0.66666667 0.25000000
        0.66666667 0.33333333 0.75000000
