C
   1.0
    14.6771349835800002    0.0000000000000000    0.0000000000000000
    -7.3385674918200010   12.7107717505800011    0.0000000000000000
     0.0000000000000000    0.0000000000000000    6.6542290476200003
 144
Direct
  0.0000000000000000  0.0000000000000000  0.2500000000000000
  0.1666666666666667  0.0000000000000000  0.2500000000000000
  0.3333333333333333  0.0000000000000000  0.2500000000000000
  0.5000000000000000  0.0000000000000000  0.2500000000000000
  0.6666666666666666  0.0000000000000000  0.2500000000000000
  0.8333333333333334  0.0000000000000000  0.2500000000000000
  0.0000000000000000  0.1666666666666667  0.2500000000000000
  0.1666666666666667  0.1666666666666667  0.2500000000000000
  0.3333333333333333  0.1666666666666667  0.2500000000000000
  0.5000000000000000  0.1666666666666667  0.2500000000000000
  0.6666666666666666  0.1666666666666667  0.2500000000000000
  0.8333333333333334  0.1666666666666667  0.2500000000000000
  0.0000000000000000  0.3333333333333333  0.2500000000000000
  0.1666666666666667  0.3333333333333333  0.2500000000000000
  0.3333333333333333  0.3333333333333333  0.2500000000000000
  0.5000000000000000  0.3333333333333333  0.2500000000000000
  0.6666666666666666  0.3333333333333333  0.2500000000000000
  0.8333333333333334  0.3333333333333333  0.2500000000000000
  0.0000000000000000  0.5000000000000000  0.2500000000000000
  0.1666666666666667  0.5000000000000000  0.2500000000000000
  0.3333333333333333  0.5000000000000000  0.2500000000000000
  0.5000000000000000  0.5000000000000000  0.2500000000000000
  0.6666666666666666  0.5000000000000000  0.2500000000000000
  0.8333333333333334  0.5000000000000000  0.2500000000000000
  0.0000000000000000  0.6666666666666666  0.2500000000000000
  0.1666666666666667  0.6666666666666666  0.2500000000000000
  0.3333333333333333  0.6666666666666666  0.2500000000000000
  0.5000000000000000  0.6666666666666666  0.2500000000000000
  0.6666666666666666  0.6666666666666666  0.2500000000000000
  0.8333333333333334  0.6666666666666666  0.2500000000000000
  0.0000000000000000  0.8333333333333334  0.2500000000000000
  0.1666666666666667  0.8333333333333334  0.2500000000000000
  0.3333333333333333  0.8333333333333334  0.2500000000000000
  0.5000000000000000  0.8333333333333334  0.2500000000000000
  0.6666666666666666  0.8333333333333334  0.2500000000000000
  0.8333333333333334  0.8333333333333334  0.2500000000000000
  0.0000000000000000  0.0000000000000000  0.7500000000000000
  0.1666666666666667  0.0000000000000000  0.7500000000000000
  0.3333333333333333  0.0000000000000000  0.7500000000000000
  0.5000000000000000  0.0000000000000000  0.7500000000000000
  0.6666666666666666  0.0000000000000000  0.7500000000000000
  0.8333333333333334  0.0000000000000000  0.7500000000000000
  0.0000000000000000  0.1666666666666667  0.7500000000000000
  0.1666666666666667  0.1666666666666667  0.7500000000000000
  0.3333333333333333  0.1666666666666667  0.7500000000000000
  0.5000000000000000  0.1666666666666667  0.7500000000000000
  0.6666666666666666  0.1666666666666667  0.7500000000000000
  0.8333333333333334  0.1666666666666667  0.7500000000000000
  0.0000000000000000  0.3333333333333333  0.7500000000000000
  0.1666666666666667  0.3333333333333333  0.7500000000000000
  0.3333333333333333  0.3333333333333333  0.7500000000000000
  0.5000000000000000  0.3333333333333333  0.7500000000000000
  0.6666666666666666  0.3333333333333333  0.7500000000000000
  0.8333333333333334  0.3333333333333333  0.7500000000000000
  0.0000000000000000  0.5000000000000000  0.7500000000000000
  0.1666666666666667  0.5000000000000000  0.7500000000000000
  0.3333333333333333  0.5000000000000000  0.7500000000000000
  0.5000000000000000  0.5000000000000000  0.7500000000000000
  0.6666666666666666  0.5000000000000000  0.7500000000000000
  0.8333333333333334  0.5000000000000000  0.7500000000000000
  0.0000000000000000  0.6666666666666666  0.7500000000000000
  0.1666666666666667  0.6666666666666666  0.7500000000000000
  0.3333333333333333  0.6666666666666666  0.7500000000000000
  0.5000000000000000  0.6666666666666666  0.7500000000000000
  0.6666666666666666  0.6666666666666666  0.7500000000000000
  0.8333333333333334  0.6666666666666666  0.7500000000000000
  0.0000000000000000  0.8333333333333334  0.7500000000000000
  0.1666666666666667  0.8333333333333334  0.7500000000000000
  0.3333333333333333  0.8333333333333334  0.7500000000000000
  0.5000000000000000  0.8333333333333334  0.7500000000000000
  0.6666666666666666  0.8333333333333334  0.7500000000000000
  0.8333333333333334  0.8333333333333334  0.7500000000000000
  0.0555555550000000  0.1111111116666667  0.2500000000000000
  0.2222222216666666  0.1111111116666667  0.2500000000000000
  0.3888888883333333  0.1111111116666667  0.2500000000000000
  0.5555555550000000  0.1111111116666667  0.2500000000000000
  0.7222222216666667  0.1111111116666667  0.2500000000000000
  0.8888888883333333  0.1111111116666667  0.2500000000000000
  0.0555555550000000  0.2777777783333333  0.2500000000000000
  0.2222222216666666  0.2777777783333333  0.2500000000000000
  0.3888888883333333  0.2777777783333333  0.2500000000000000
  0.5555555550000000  0.2777777783333333  0.2500000000000000
  0.7222222216666667  0.2777777783333333  0.2500000000000000
  0.8888888883333333  0.2777777783333333  0.2500000000000000
  0.0555555550000000  0.4444444450000000  0.2500000000000000
  0.2222222216666666  0.4444444450000000  0.2500000000000000
  0.3888888883333333  0.4444444450000000  0.2500000000000000
  0.5555555550000000  0.4444444450000000  0.2500000000000000
  0.7222222216666667  0.4444444450000000  0.2500000000000000
  0.8888888883333333  0.4444444450000000  0.2500000000000000
  0.0555555550000000  0.6111111116666667  0.2500000000000000
  0.2222222216666666  0.6111111116666667  0.2500000000000000
  0.3888888883333333  0.6111111116666667  0.2500000000000000
  0.5555555550000000  0.6111111116666667  0.2500000000000000
  0.7222222216666667  0.6111111116666667  0.2500000000000000
  0.8888888883333333  0.6111111116666667  0.2500000000000000
  0.0555555550000000  0.7777777783333333  0.2500000000000000
  0.2222222216666666  0.7777777783333333  0.2500000000000000
  0.3888888883333333  0.7777777783333333  0.2500000000000000
  0.5555555550000000  0.7777777783333333  0.2500000000000000
  0.7222222216666667  0.7777777783333333  0.2500000000000000
  0.8888888883333333  0.7777777783333333  0.2500000000000000
  0.0555555550000000  0.9444444449999999  0.2500000000000000
  0.2222222216666666  0.9444444449999999  0.2500000000000000
  0.3888888883333333  0.9444444449999999  0.2500000000000000
  0.5555555550000000  0.9444444449999999  0.2500000000000000
  0.7222222216666667  0.9444444449999999  0.2500000000000000
  0.8888888883333333  0.9444444449999999  0.2500000000000000
  0.1111111116666667  0.0555555550000000  0.7500000000000000
  0.2777777783333333  0.0555555550000000  0.7500000000000000
  0.4444444450000000  0.0555555550000000  0.7500000000000000
  0.6111111116666667  0.0555555550000000  0.7500000000000000
  0.7777777783333333  0.0555555550000000  0.7500000000000000
  0.9444444449999999  0.0555555550000000  0.7500000000000000
  0.1111111116666667  0.2222222216666666  0.7500000000000000
  0.2777777783333333  0.2222222216666666  0.7500000000000000
  0.4444444450000000  0.2222222216666666  0.7500000000000000
  0.6111111116666667  0.2222222216666666  0.7500000000000000
  0.7777777783333333  0.2222222216666666  0.7500000000000000
  0.9444444449999999  0.2222222216666666  0.7500000000000000
  0.1111111116666667  0.3888888883333333  0.7500000000000000
  0.2777777783333333  0.3888888883333333  0.7500000000000000
  0.4444444450000000  0.3888888883333333  0.7500000000000000
  0.6111111116666667  0.3888888883333333  0.7500000000000000
  0.7777777783333333  0.3888888883333333  0.7500000000000000
  0.9444444449999999  0.3888888883333333  0.7500000000000000
  0.1111111116666667  0.5555555550000000  0.7500000000000000
  0.2777777783333333  0.5555555550000000  0.7500000000000000
  0.4444444450000000  0.5555555550000000  0.7500000000000000
  0.6111111116666667  0.5555555550000000  0.7500000000000000
  0.7777777783333333  0.5555555550000000  0.7500000000000000
  0.9444444449999999  0.5555555550000000  0.7500000000000000
  0.1111111116666667  0.7222222216666667  0.7500000000000000
  0.2777777783333333  0.7222222216666667  0.7500000000000000
  0.4444444450000000  0.7222222216666667  0.7500000000000000
  0.6111111116666667  0.7222222216666667  0.7500000000000000
  0.7777777783333333  0.7222222216666667  0.7500000000000000
  0.9444444449999999  0.7222222216666667  0.7500000000000000
  0.1111111116666667  0.8888888883333333  0.7500000000000000
  0.2777777783333333  0.8888888883333333  0.7500000000000000
  0.4444444450000000  0.8888888883333333  0.7500000000000000
  0.6111111116666667  0.8888888883333333  0.7500000000000000
  0.7777777783333333  0.8888888883333333  0.7500000000000000
  0.9444444449999999  0.8888888883333333  0.7500000000000000
